416
105
504
244
63
913
1479
450
1350
176
360
54
154
159
6
1584
540
114
10
704
900
63
99
1140
1044
286
979
196
455
59
714
1288
120
1440
255
682
310
658
310
204
495
1024
12
102
112
252
1095
78
216
68
89
480
196
63
360
159
22
1680
1196
720
710
44
136
282
700
624
1296
144
250
52
22
120
756
68
432
1071
288
270
132
646
518
1240
84
624
150
1296
1326
435
310
40
935
640
164
424
192
104
1335
660
656
203
